52
1 0 7
2 0 7
2 1 4
3 0 4
3 1 6
4 1 7
4 2 6
5 1 7
5 2 4
6 0 4
6 1 1
6 2 6
6 5 4
7 0 7
7 1 7
7 3 7
7 5 1
8 1 2
8 2 3
8 3 2
8 5 1
9 1 4
9 3 1
9 4 6
9 6 7
9 8 7
10 3 2
10 4 3
10 7 4
10 9 2
11 0 4
11 3 6
11 6 2
11 10 7
12 1 2
12 3 7
12 5 6
12 6 5
12 7 1
12 8 1
12 10 4
12 11 4
13 2 3
13 3 3
13 4 7
13 5 4
13 7 1
13 8 3
13 10 4
14 0 6
14 2 2
14 3 3
14 4 1
14 5 6
14 7 1
15 0 1
15 1 6
15 3 4
15 5 6
15 8 5
15 9 6
15 10 4
15 11 3
15 12 2
15 13 7
16 0 2
16 2 6
16 3 4
16 5 6
16 7 4
16 8 6
16 9 7
16 10 1
16 11 2
16 13 5
17 0 5
17 2 5
17 3 5
17 4 1
17 5 7
17 6 7
17 7 3
17 9 2
17 11 3
17 12 1
18 0 5
18 1 2
18 6 1
18 7 6
18 8 6
18 9 3
18 16 7
19 1 2
19 3 4
19 5 5
19 6 7
19 9 3
19 12 3
19 13 6
19 16 2
19 17 4
19 18 4
20 0 6
20 4 5
20 6 7
20 7 5
20 8 3
20 9 6
20 11 1
20 12 1
20 14 3
20 15 2
20 16 5
21 2 5
21 5 2
21 6 5
21 8 4
21 9 5
21 11 6
21 12 2
21 13 5
21 16 7
21 19 3
21 20 3
22 0 4
22 1 5
22 2 5
22 3 4
22 4 3
22 8 4
22 10 7
22 12 7
22 18 4
22 19 2
22 21 3
23 0 2
23 1 2
23 2 2
23 3 4
23 5 4
23 6 5
23 7 7
23 8 6
23 9 5
23 12 5
23 18 2
23 19 1
23 22 2
24 1 4
24 4 2
24 6 1
24 11 7
24 12 4
24 14 7
24 18 2
24 20 7
24 22 6
25 0 5
25 2 3
25 3 5
25 4 2
25 5 1
25 6 4
25 7 2
25 13 4
25 14 1
25 15 6
25 16 1
25 19 2
25 20 5
26 1 2
26 5 1
26 7 5
26 8 1
26 9 3
26 12 1
26 19 3
26 21 3
26 22 4
27 1 7
27 2 6
27 3 7
27 5 5
27 6 4
27 9 4
27 10 4
27 13 2
27 16 6
27 25 1
28 0 1
28 3 6
28 8 2
28 10 6
28 14 4
28 15 2
28 17 5
28 20 4
28 22 3
28 23 4
28 26 5
28 27 2
29 0 5
29 3 2
29 5 6
29 7 2
29 9 1
29 10 1
29 11 4
29 13 4
29 15 1
29 16 4
29 18 2
29 19 1
29 20 2
29 21 3
29 22 5
29 23 6
29 26 3
29 27 6
30 0 6
30 2 2
30 4 3
30 8 5
30 11 2
30 14 5
30 17 2
30 18 3
30 26 5
30 27 2
30 28 1
31 1 1
31 3 2
31 5 4
31 10 2
31 12 4
31 15 6
31 17 1
31 19 7
31 21 3
31 23 7
31 24 7
31 25 1
31 27 7
31 29 4
32 1 6
32 3 5
32 7 4
32 8 3
32 10 6
32 11 7
32 13 5
32 14 7
32 15 5
32 16 1
32 18 4
32 20 6
32 23 4
32 26 7
32 27 6
32 29 1
33 0 6
33 5 2
33 6 4
33 8 3
33 14 3
33 16 2
33 17 2
33 21 2
33 22 4
33 26 3
33 28 6
33 30 3
33 32 4
34 0 4
34 2 6
34 4 1
34 5 4
34 6 4
34 7 6
34 9 3
34 12 5
34 13 4
34 14 3
34 18 7
34 19 6
34 21 5
34 22 7
34 24 1
34 26 5
34 27 5
34 31 2
35 1 5
35 2 2
35 8 6
35 10 2
35 12 6
35 13 3
35 14 5
35 16 7
35 19 3
35 20 4
35 21 3
35 25 1
35 28 2
35 29 7
35 33 4
36 1 5
36 3 1
36 4 7
36 5 7
36 6 2
36 10 5
36 12 7
36 15 1
36 16 1
36 17 7
36 18 2
36 21 4
36 23 2
36 27 6
36 28 5
36 29 3
36 30 1
36 31 7
36 32 5
36 34 7
36 35 1
37 1 4
37 7 5
37 8 2
37 11 6
37 14 4
37 15 1
37 17 6
37 18 1
37 19 7
37 20 2
37 23 1
37 26 6
37 30 7
37 31 1
37 32 4
37 35 7
38 0 6
38 3 6
38 6 5
38 7 3
38 8 3
38 10 6
38 11 7
38 13 2
38 15 2
38 17 4
38 19 2
38 22 4
38 23 3
38 24 7
38 25 1
38 26 4
38 27 1
38 28 7
38 29 4
38 31 6
38 33 4
38 35 2
38 36 1
38 37 4
39 4 3
39 5 3
39 7 5
39 8 6
39 9 5
39 11 7
39 14 5
39 15 6
39 19 5
39 20 4
39 21 3
39 22 1
39 25 6
39 26 6
39 27 6
39 30 7
39 34 3
39 36 2
39 38 7
40 0 7
40 1 6
40 6 5
40 7 7
40 10 2
40 15 6
40 16 6
40 18 5
40 19 3
40 20 7
40 31 4
40 32 1
40 33 7
40 36 7
40 38 6
40 39 3
41 1 4
41 2 7
41 4 1
41 5 6
41 6 7
41 7 5
41 10 4
41 11 4
41 12 7
41 15 1
41 16 3
41 20 6
41 25 4
41 27 6
41 28 3
41 30 7
41 31 7
41 33 4
41 34 4
41 35 7
41 36 4
41 37 5
41 38 7
41 39 7
41 40 7
42 0 4
42 3 7
42 5 7
42 10 1
42 11 5
42 12 7
42 19 2
42 22 6
42 23 1
42 24 6
42 27 5
42 28 4
42 29 6
42 30 6
42 31 4
42 32 6
42 36 4
42 37 1
42 39 1
43 3 5
43 4 4
43 6 4
43 8 1
43 9 7
43 10 1
43 14 5
43 16 7
43 23 2
43 24 4
43 26 3
43 28 5
43 31 7
43 32 7
43 36 7
43 37 2
43 38 5
43 40 5
43 42 6
44 1 3
44 4 7
44 6 6
44 7 1
44 9 7
44 10 3
44 13 4
44 14 3
44 15 2
44 17 7
44 18 3
44 19 4
44 20 4
44 21 1
44 24 5
44 26 7
44 30 3
44 32 2
44 35 1
44 36 7
44 37 5
44 41 2
44 42 2
44 43 1
45 1 4
45 3 3
45 4 4
45 5 4
45 6 3
45 7 4
45 10 2
45 11 6
45 15 4
45 16 3
45 17 2
45 18 2
45 19 6
45 22 1
45 25 3
45 26 6
45 27 1
45 28 6
45 29 4
45 32 5
45 33 4
45 34 3
45 35 2
45 36 6
45 38 5
45 40 1
45 42 3
45 44 6
46 1 2
46 4 7
46 5 3
46 6 2
46 9 5
46 10 6
46 11 2
46 12 3
46 14 7
46 15 7
46 17 1
46 20 6
46 23 5
46 24 6
46 25 4
46 26 2
46 27 6
46 33 5
46 35 3
46 36 3
46 37 4
46 38 2
46 40 1
46 41 5
46 43 6
46 44 7
47 0 3
47 4 1
47 8 6
47 12 7
47 14 2
47 15 3
47 16 4
47 17 6
47 18 6
47 22 1
47 25 4
47 27 3
47 29 3
47 31 2
47 33 6
47 34 1
47 36 4
47 39 2
47 40 4
47 42 3
47 46 2
48 0 3
48 1 7
48 3 4
48 5 2
48 6 5
48 7 6
48 8 6
48 10 3
48 11 3
48 12 5
48 13 6
48 14 7
48 18 7
48 21 1
48 22 2
48 23 4
48 24 6
48 25 5
48 26 7
48 27 6
48 28 6
48 29 6
48 32 1
48 33 3
48 37 5
48 39 5
48 42 4
48 44 7
49 0 2
49 1 2
49 4 3
49 7 7
49 8 4
49 10 1
49 11 2
49 13 7
49 18 3
49 24 3
49 28 5
49 29 2
49 30 6
49 32 5
49 36 4
49 37 1
49 38 6
49 40 2
49 41 5
49 43 3
49 44 1
49 45 7
49 47 1
50 0 4
50 3 7
50 4 7
50 6 3
50 9 6
50 14 5
50 16 4
50 21 3
50 22 6
50 23 7
50 24 3
50 26 3
50 28 4
50 29 4
50 30 5
50 31 2
50 32 1
50 34 2
50 37 6
50 38 4
50 39 4
50 41 3
50 44 2
50 46 1
50 48 6
50 49 4
51 0 2
51 4 2
51 7 4
51 9 3
51 12 6
51 13 2
51 15 3
51 16 5
51 17 1
51 18 7
51 19 2
51 23 6
51 25 7
51 28 5
51 32 4
51 33 3
51 34 2
51 35 7
51 36 2
51 38 5
51 46 2
